4 
5  18 33 48 
6  05 20 35 50 
7  05 21 36 51 
8  06 21 36 51 
9  06 21 36 51 
10  06 21 36 51 
11  06 21 36 51 
12  06 21 36 51 
13  06 21 36 51 
14  06 26 41 56 
15  11 26 41 56 
16  11 26 41 56 
17  11 26 44 
18  01 16 32 48 
19  02 17 32 47 
20  02 17 32 47 
21  
22 
